SPARKNaCl/why3-z3/sparknacl-core.adb_289_16_length_check3_1.smt2
;; produced by z3_gnatprove.drv ;;
(set-info :smt-lib-version 2.5)
(set-info :source |VC generated by SPARK 2014|)
(set-info :category industrial)
(set-info :status unknown)
;;; generated by SMT-LIB2 driver
;;; SMT-LIB2 driver: bit-vectors, common part
;;; SMT-LIB2: integer arithmetic
(declare-datatypes ()
  ((int__ref (int__refqtmk (int__content Int)))))

(declare-sort byte 0)

;; "to_rep"
(declare-fun to_rep (byte) (_ BitVec 8))

;; "of_rep"
(declare-fun of_rep ((_ BitVec 8)) byte)

;; "inversion_axiom"
(assert
  (forall ((x byte)) (! (= (of_rep (to_rep x)) x) :pattern ((to_rep x)) )))

;; "range_axiom"
(assert true)

;; "coerce_axiom"
(assert
  (forall ((x (_ BitVec 8)))
    (! (= (to_rep (of_rep x)) x) :pattern ((to_rep (of_rep x))) )))

(declare-sort map1 0)

(declare-datatypes ()
  ((map__ref (map__refqtmk (map__content map1)))))

;; "has_bounds"
(declare-fun has_bounds (map1
  Int
  Int) Bool)

;; "get"
(declare-fun get (map1
  Int) byte)

;; "slide"
(declare-fun slide (map1
  Int
  Int) map1)

;; "slide_eq"
(assert
  (forall ((a map1) (first Int))
    (! (= (slide a first first) a) :pattern ((slide a first first)) )))

;; "slide_def"
(assert
  (forall ((a map1) (old_first Int) (new_first Int))
    (! (and
         (forall ((i Int))
           (! (= (get (slide a old_first new_first) i) (get
                                                         a
                                                         (- i (- new_first old_first)))) :pattern (
           (get
             (slide a old_first new_first)
             i)) ))
         (forall ((new_last Int))
           (! (=>
                (has_bounds a old_first (- new_last (- new_first old_first)))
                (has_bounds (slide a old_first new_first) new_first new_last)) :pattern (
           (has_bounds
             (slide a old_first new_first)
             new_first
             new_last)) ))) :pattern ((slide a old_first new_first)) )))

;; "slice"
(declare-fun slice (map1
  Int
  Int) map1)

;; "slice_eq"
(assert
  (forall ((a map1) (f Int) (l Int))
    (! (=> (has_bounds a f l) (= (slice a f l) a)) :pattern ((slice a f l)
    (has_bounds a f l)) )))

;; "slice_slice"
(assert
  (forall ((a map1) (f1 Int) (l1 Int) (f2 Int) (l2 Int))
    (! (=>
         (and (<= f1 f2) (<= l2 l1))
         (= (slice (slice a f1 l1) f2 l2) (slice a f2 l2))) :pattern (
    (slice
      (slice a f1 l1)
      f2
      l2)) )))

;; "slice_def"
(assert
  (forall ((a map1) (f Int) (l Int))
    (! (forall ((i Int))
         (! (=> (and (<= f i) (<= i l)) (= (get (slice a f l) i) (get a i))) :pattern (
         (get
           (slice a f l)
           i)) :pattern ((get a i)) )) :pattern ((slice a f l)) )))

;; "slice_has_bounds"
(assert
  (forall ((a map1) (f Int) (l Int))
    (! (has_bounds (slice a f l) f l) :pattern ((has_bounds
                                                  (slice a f l)
                                                  f
                                                  l)) )))

(declare-datatypes ()
  ((us_split_fields
   (us_split_fieldsqtmk (rec__ada___sparknacl__core__salsa20_key__f map1)))))

(declare-datatypes ()
  ((us_rep (us_repqtmk (us_split_fields1 us_split_fields)))))

;; "dynamic_invariant"
(define-fun dynamic_invariant ((temp___expr_300 us_rep) (temp___is_init_296 Bool) (temp___skip_constant_297 Bool) (temp___do_toplevel_298 Bool) (temp___do_typ_inv_299 Bool)) Bool
  (has_bounds
    (rec__ada___sparknacl__core__salsa20_key__f
      (us_split_fields1 temp___expr_300))
    0
    31))

(declare-const input map1)

(declare-const k us_rep)

(declare-const c map1)

(declare-sort u32 0)

;; "to_rep"
(declare-fun to_rep1 (u32) (_ BitVec 32))

;; "of_rep"
(declare-fun of_rep1 ((_ BitVec 32)) u32)

;; "inversion_axiom"
(assert
  (forall ((x u32)) (! (= (of_rep1 (to_rep1 x)) x) :pattern ((to_rep1 x)) )))

;; "range_axiom"
(assert true)

;; "coerce_axiom"
(assert
  (forall ((x (_ BitVec 32)))
    (! (= (to_rep1 (of_rep1 x)) x) :pattern ((to_rep1 (of_rep1 x))) )))

(declare-sort map2 0)

(declare-datatypes ()
  ((map__ref1 (map__refqtmk1 (map__content1 map2)))))

;; "has_bounds"
(declare-fun has_bounds1 (map2
  Int
  Int) Bool)

(declare-sort tinteger_32B 0)

;; "tinteger_32B'int"
(declare-fun tinteger_32Bqtint (tinteger_32B) Int)

;; "tinteger_32B'axiom"
(assert
  (forall ((i tinteger_32B))
    (and
      (<= (- 2147483648) (tinteger_32Bqtint i))
      (<= (tinteger_32Bqtint i) 2147483647))))

;; "in_range"
(define-fun in_range ((x Int)) Bool
  (and (<= (- 2147483648) x) (<= x 2147483647)))

;; "to_rep"
(define-fun to_rep2 ((x tinteger_32B)) Int
  (tinteger_32Bqtint x))

;; "of_rep"
(declare-fun of_rep2 (Int) tinteger_32B)

;; "inversion_axiom"
(assert
  (forall ((x tinteger_32B))
    (! (= (of_rep2 (to_rep2 x)) x) :pattern ((to_rep2 x)) )))

;; "range_axiom"
(assert
  (forall ((x tinteger_32B))
    (! (in_range (to_rep2 x)) :pattern ((to_rep2 x)) )))

;; "coerce_axiom"
(assert
  (forall ((x Int))
    (! (=> (in_range x) (= (to_rep2 (of_rep2 x)) x)) :pattern ((to_rep2
                                                                 (of_rep2 x))) )))

(declare-datatypes ()
  ((t (tqtmk (rec__first tinteger_32B)(rec__last tinteger_32B)))))

;; "mk"
(declare-fun mk (Int
  Int) t)

;; "mk_def"
(assert
  (forall ((f Int) (l Int))
    (! (=>
         (in_range f)
         (=>
           (in_range l)
           (and
             (= (to_rep2 (rec__first (mk f l))) f)
             (= (to_rep2 (rec__last (mk f l))) l)))) :pattern ((mk f l)) )))

(declare-datatypes ()
  ((us_t (us_tqtmk (elts map1)(rt t)))))

;; "of_array"
(define-fun of_array ((a map1) (f Int) (l Int)) us_t
  (us_tqtmk a (mk f l)))

;; "temp_____aggregate_def_789"
(declare-fun temp_____aggregate_def_789 ((_ BitVec 8)) map1)

(declare-const output map1)

(declare-const x map2)

(declare-const y map2)

;; "y'unused"
(define-fun yqtunused () map__ref1
  (map__refqtmk1 y))

;; "x'unused"
(define-fun xqtunused () map__ref1
  (map__refqtmk1 x))

;; "Assume"
(assert (has_bounds output 0 63))

;; "Assume"
(assert (has_bounds input 0 15))

;; "Assume"
(assert (dynamic_invariant k true false true true))

;; "Assume"
(assert (has_bounds c 0 15))

;; "Assume"
(assert true)

;; "Assume"
(assert (has_bounds1 x 0 15))

;; "Assume"
(assert true)

;; "Assume"
(assert (has_bounds1 y 0 15))

;; "map__content'result'unused"
(define-fun map__contentqtresultqtunused () map2
  x)

;; "map__content'result'unused"
(define-fun map__contentqtresultqtunused1 () map2
  y)

(declare-const x1 map2)

(declare-const y1 map2)

;; "y'unused"
(define-fun yqtunused1 () map__ref1
  (map__refqtmk1 y1))

;; "x'unused"
(define-fun xqtunused1 () map__ref1
  (map__refqtmk1 x1))

;; "H"
(assert (has_bounds1 x1 0 15))

;; "H"
(assert (has_bounds1 y1 0 15))

;; "H"
(assert true)

;; "H"
(assert true)

(declare-const temp___793 map1)

;; "H"
(assert (has_bounds temp___793 0 63))

;; "H"
(assert
  (forall ((temp___792 Int))
    (! (=>
         (and (<= 0 temp___792) (<= temp___792 63))
         (= (to_rep (get temp___793 temp___792)) #x00)) :pattern ((get
                                                                    temp___793
                                                                    temp___792)) )))

;; "H"
(assert (= temp___793 (temp_____aggregate_def_789 #x00)))

;; "temp_____aggregate_def_789'result'unused"
(define-fun temp_____aggregate_def_789qtresultqtunused () map1
  temp___793)

(declare-const output1 map1)

;; "output'unused"
(define-fun outputqtunused () map__ref
  (map__refqtmk output1))

;; "H"
(assert (= output1 temp___793))

(declare-const i Int)

;; "i'unused"
(define-fun iqtunused () int__ref
  (int__refqtmk i))

;; "H"
(assert (= i 0))

;; "int__content'result'unused"
(define-fun int__contentqtresultqtunused () Int
  i)

;; "o"
(define-fun o () Bool
  (ite (<= i 15) true false))

;; "infix <='result'unused"
(define-fun infix_lseqqtresultqtunused () Bool
  o)

;; "int__content'result'unused"
(define-fun int__contentqtresultqtunused1 () Int
  i)

;; "o"
(define-fun o1 () Bool
  (ite (<= 0 i) true false))

;; "infix <='result'unused"
(define-fun infix_lseqqtresultqtunused1 () Bool
  o1)

;; "o"
(define-fun o2 () Bool
  (and o1 o))

;; "andb'result'unused"
(define-fun andbqtresultqtunused () Bool
  o2)

;; "H"
(assert (= o2 true))

;; "temp___loop_entry_810'unused"
(define-fun temp___loop_entry_810qtunused () map1
  output1)

;; "map__content'result'unused"
(define-fun map__contentqtresultqtunused2 () map1
  output1)

(declare-const output2 map1)

(declare-const i1 Int)

;; "i'unused"
(define-fun iqtunused1 () int__ref
  (int__refqtmk i1))

;; "output'unused"
(define-fun outputqtunused1 () map__ref
  (map__refqtmk output2))

;; "Assume"
(assert
  (= (and (ite (has_bounds output2 0 63) true false) (ite (and
                                                            (<= 0 i1)
                                                            (<= i1 15))
                                                       true
                                                       false)) true))

;; "int__content'result'unused"
(define-fun int__contentqtresultqtunused2 () Int
  i1)

;; "o"
(define-fun o3 () Int
  (* 4 i1))

;; "infix *'result'unused"
(define-fun infix_asqtresultqtunused () Int
  o3)

;; "temp___798"
(define-fun temp___798 () Int
  (+ o3 3))

;; "infix +'result'unused"
(define-fun infix_plqtresultqtunused () Int
  temp___798)

;; "int__content'result'unused"
(define-fun int__contentqtresultqtunused3 () Int
  i1)

;; "temp___797"
(define-fun temp___797 () Int
  (* 4 i1))

;; "infix *'result'unused"
(define-fun infix_asqtresultqtunused1 () Int
  temp___797)

;; "Assert"
(assert
  (=>
    (<= temp___797 temp___798)
    (and
      (and (<= 0 temp___797) (<= temp___797 63))
      (and (<= 0 temp___798) (<= temp___798 63)))))

;; "map__content'result'unused"
(define-fun map__contentqtresultqtunused3 () map1
  output2)

;; "o"
(define-fun o4 () map1
  (slice output2 temp___797 temp___798))

;; "slice'result'unused"
(define-fun sliceqtresultqtunused () map1
  o4)

;; "temp___799"
(define-fun temp___799 () us_t
  (of_array o4 temp___797 temp___798))

;; "of_array'result'unused"
(define-fun of_arrayqtresultqtunused () us_t
  temp___799)

;; "o"
(define-fun o5 () Int
  temp___797)

;; "first'result'unused"
(define-fun firstqtresultqtunused () Int
  o5)

;; "o"
(define-fun o6 () map1
  o4)

;; "to_array'result'unused"
(define-fun to_arrayqtresultqtunused () map1
  o6)

;; "temp___800"
(define-fun temp___800 () map1
  (slide o6 o5 0))

;; "slide'result'unused"
(define-fun slideqtresultqtunused () map1
  temp___800)

;; "H"
(assert (not (<= temp___797 temp___798)))

;; Goal "def'vc"
;; File "sparknacl-core.ads", line 55, characters 0-0
(assert
  (not (< 3 0)))

(check-sat)
